/* Objective function */
min: +C17 +C18 +C19 +C20;

/* Constraints */
+13 C1 +17 C2 +38 C3 +7 C4 -41 C17 <= 0;
+13 C5 +17 C6 +38 C7 +7 C8 -41 C18 <= 0;
+13 C9 +17 C10 +38 C11 +7 C12 -41 C19 <= 0;
+13 C13 +17 C14 +38 C15 +7 C16 -41 C20 <= 0;
+72 C1 +82 C2 +38 C3 +69 C4 -88 C17 <= 0;
+72 C5 +82 C6 +38 C7 +69 C8 -88 C18 <= 0;
+72 C9 +82 C10 +38 C11 +69 C12 -88 C19 <= 0;
+72 C13 +82 C14 +38 C15 +69 C16 -88 C20 <= 0;
+C1 +C5 +C9 +C13 = 1;
+C2 +C6 +C10 +C14 = 1;
+C3 +C7 +C11 +C15 = 1;
+C4 +C8 +C12 +C16 = 1;

/* Variable bounds */
C1 <= 1;
C2 <= 1;
C3 <= 1;
C4 <= 1;
C5 <= 1;
C6 <= 1;
C7 <= 1;
C8 <= 1;
C9 <= 1;
C10 <= 1;
C11 <= 1;
C12 <= 1;
C13 <= 1;
C14 <= 1;
C15 <= 1;
C16 <= 1;
C17 <= 1;
C18 <= 1;
C19 <= 1;
C20 <= 1;

/* Integer definitions */
int C1,C2,C3,C4,C5,C6,C7,C8,C9,C10,C11,C12,C13,C14,C15,C16,C17,C18,C19,C20;
